% Logging successfully configured
%%%mzn-stat: initTime=0.004361406
%%%mzn-stat: objective=945
%%%mzn-stat: nodes=1786
%%%mzn-stat: restarts=0
%%%mzn-stat: peakDepth=184
%%%mzn-stat: solveTime=0.209992468
%%%mzn-stat: variables=492
%%%mzn-stat: propagators=1534
%%%mzn-stat: failures=1355
%%%mzn-stat: propagations=711689
%%%mzn-stat: nogoods=1355
%%%mzn-stat: numAtomicConstraintsPropagated=0
%%%mzn-stat: circuitNumber1226PropagationsThatFoundConflict=168
%%%mzn-stat: circuitNumber1226TotalFixedEdgesAtConflict=5178
%%%mzn-stat: circuitNumber1226NumberOfConflicts=168
%%%mzn-stat: circuitNumber1226PropagationsThatPruned=733
%%%mzn-stat: circuitNumber1226PropagationsTotal=2295
%%%mzn-stat: AverageConflictSize=6.098892988929889
%%%mzn-stat: NumUnitNogoodsLearned=0
%%%mzn-stat: AverageLearnedNogoodLength=15.54169741697417
%%%mzn-stat: AverageBacktrackAmount=0
%%%mzn-stat: AverageLbd=8.707749077490774
%%%mzn-stat: 2AutonomousSearchNumBackupCalled=168
%%%mzn-stat: 2AutonomousSearchNumPredicatesRemoved=0
%%%mzn-stat: 2AutonomousSearchNumCalls=169
%%%mzn-stat: 2AutonomousSearchNumPredicatesAdded=2568
%%%mzn-stat: 2AutonomousSearchAverageSizeOfHeap=15.195266272189349
%%%mzn-stat: 2AutonomousSearchNumAssignedPredicatesEncountered=2568
%%%mzn-stat-end
maxleg = 945;
succ = array1d(1..50,[3, 24, 7, 26, 18, 1, 41, 11, 43, 12, 19, 32, 17, 37, 4, 34, 20, 33, 30, 38, 22, 48, 46, 35, 5, 27, 47, 13, 21, 40, 10, 8, 14, 28, 36, 31, 39, 50, 9, 42, 15, 23, 44, 49, 2, 6, 29, 25, 16, 45]);
% time elapsed: 4.33 s
----------
%%%mzn-stat: initTime=0.004361406
%%%mzn-stat: objective=795
%%%mzn-stat: nodes=2482
%%%mzn-stat: restarts=0
%%%mzn-stat: peakDepth=187
%%%mzn-stat: solveTime=0.278668473
%%%mzn-stat: variables=492
%%%mzn-stat: propagators=1534
%%%mzn-stat: failures=1753
%%%mzn-stat: propagations=917607
%%%mzn-stat: nogoods=1753
%%%mzn-stat: numAtomicConstraintsPropagated=0
%%%mzn-stat: circuitNumber1226PropagationsThatFoundConflict=274
%%%mzn-stat: circuitNumber1226TotalFixedEdgesAtConflict=9057
%%%mzn-stat: circuitNumber1226NumberOfConflicts=274
%%%mzn-stat: circuitNumber1226PropagationsThatPruned=946
%%%mzn-stat: circuitNumber1226PropagationsTotal=3003
%%%mzn-stat: AverageConflictSize=6.994295493439817
%%%mzn-stat: NumUnitNogoodsLearned=0
%%%mzn-stat: AverageLearnedNogoodLength=16.06160867084997
%%%mzn-stat: AverageBacktrackAmount=0
%%%mzn-stat: AverageLbd=8.99030233884769
%%%mzn-stat: 2AutonomousSearchNumBackupCalled=336
%%%mzn-stat: 2AutonomousSearchNumPredicatesRemoved=0
%%%mzn-stat: 2AutonomousSearchNumCalls=338
%%%mzn-stat: 2AutonomousSearchNumPredicatesAdded=4781
%%%mzn-stat: 2AutonomousSearchAverageSizeOfHeap=15.201183431952662
%%%mzn-stat: 2AutonomousSearchNumAssignedPredicatesEncountered=5138
%%%mzn-stat-end
maxleg = 795;
succ = array1d(1..50,[3, 24, 7, 26, 18, 1, 41, 32, 43, 35, 8, 37, 17, 12, 4, 34, 20, 33, 11, 38, 22, 50, 46, 25, 48, 19, 30, 13, 27, 40, 16, 2, 14, 28, 36, 31, 39, 21, 9, 42, 15, 23, 44, 49, 47, 6, 29, 5, 10, 45]);
% time elapsed: 4.40 s
----------
%%%mzn-stat: initTime=0.004361406
%%%mzn-stat: objective=752
%%%mzn-stat: nodes=3239
%%%mzn-stat: restarts=0
%%%mzn-stat: peakDepth=190
%%%mzn-stat: solveTime=0.35778573
%%%mzn-stat: variables=492
%%%mzn-stat: propagators=1534
%%%mzn-stat: failures=2246
%%%mzn-stat: propagations=1156065
%%%mzn-stat: nogoods=2246
%%%mzn-stat: numAtomicConstraintsPropagated=0
%%%mzn-stat: circuitNumber1226PropagationsThatFoundConflict=384
%%%mzn-stat: circuitNumber1226TotalFixedEdgesAtConflict=12310
%%%mzn-stat: circuitNumber1226NumberOfConflicts=384
%%%mzn-stat: circuitNumber1226PropagationsThatPruned=1211
%%%mzn-stat: circuitNumber1226PropagationsTotal=3809
%%%mzn-stat: AverageConflictSize=6.902493321460374
%%%mzn-stat: NumUnitNogoodsLearned=0
%%%mzn-stat: AverageLearnedNogoodLength=15.757346393588602
%%%mzn-stat: AverageBacktrackAmount=0
%%%mzn-stat: AverageLbd=8.791629563668744
%%%mzn-stat: 2AutonomousSearchNumBackupCalled=508
%%%mzn-stat: 2AutonomousSearchNumPredicatesRemoved=0
%%%mzn-stat: 2AutonomousSearchNumCalls=511
%%%mzn-stat: 2AutonomousSearchNumPredicatesAdded=7311
%%%mzn-stat: 2AutonomousSearchAverageSizeOfHeap=15.46771037181996
%%%mzn-stat: 2AutonomousSearchNumAssignedPredicatesEncountered=7904
%%%mzn-stat-end
maxleg = 752;
succ = array1d(1..50,[3, 24, 7, 26, 18, 46, 41, 11, 39, 49, 19, 32, 28, 37, 4, 31, 13, 33, 30, 17, 22, 38, 1, 25, 48, 27, 47, 34, 21, 40, 35, 8, 14, 16, 36, 10, 6, 50, 12, 45, 15, 23, 9, 43, 2, 42, 29, 5, 44, 20]);
% time elapsed: 4.48 s
----------
%%%mzn-stat: initTime=0.004361406
%%%mzn-stat: objective=553
%%%mzn-stat: nodes=3861
%%%mzn-stat: restarts=0
%%%mzn-stat: peakDepth=190
%%%mzn-stat: solveTime=0.410621601
%%%mzn-stat: variables=492
%%%mzn-stat: propagators=1534
%%%mzn-stat: failures=2596
%%%mzn-stat: propagations=1322072
%%%mzn-stat: nogoods=2596
%%%mzn-stat: numAtomicConstraintsPropagated=0
%%%mzn-stat: circuitNumber1226PropagationsThatFoundConflict=432
%%%mzn-stat: circuitNumber1226TotalFixedEdgesAtConflict=13962
%%%mzn-stat: circuitNumber1226NumberOfConflicts=432
%%%mzn-stat: circuitNumber1226PropagationsThatPruned=1341
%%%mzn-stat: circuitNumber1226PropagationsTotal=4384
%%%mzn-stat: AverageConflictSize=6.652157164869029
%%%mzn-stat: NumUnitNogoodsLearned=0
%%%mzn-stat: AverageLearnedNogoodLength=15.630970724191064
%%%mzn-stat: AverageBacktrackAmount=0
%%%mzn-stat: AverageLbd=8.653312788906009
%%%mzn-stat: 2AutonomousSearchNumBackupCalled=678
%%%mzn-stat: 2AutonomousSearchNumPredicatesRemoved=0
%%%mzn-stat: 2AutonomousSearchNumCalls=682
%%%mzn-stat: 2AutonomousSearchNumPredicatesAdded=9826
%%%mzn-stat: 2AutonomousSearchAverageSizeOfHeap=15.711143695014663
%%%mzn-stat: 2AutonomousSearchNumAssignedPredicatesEncountered=10715
%%%mzn-stat-end
maxleg = 553;
succ = array1d(1..50,[3, 24, 7, 26, 25, 1, 41, 11, 39, 12, 19, 32, 28, 33, 4, 49, 13, 48, 30, 17, 22, 38, 46, 35, 2, 27, 29, 34, 21, 40, 10, 8, 18, 16, 36, 31, 14, 47, 37, 42, 15, 23, 9, 43, 50, 6, 45, 5, 44, 20]);
% time elapsed: 4.54 s
----------
%%%mzn-stat: initTime=0.004361406
%%%mzn-stat: objective=523
%%%mzn-stat: nodes=4945
%%%mzn-stat: restarts=0
%%%mzn-stat: peakDepth=190
%%%mzn-stat: solveTime=0.512884716
%%%mzn-stat: variables=492
%%%mzn-stat: propagators=1534
%%%mzn-stat: failures=3304
%%%mzn-stat: propagations=1617341
%%%mzn-stat: nogoods=3304
%%%mzn-stat: numAtomicConstraintsPropagated=0
%%%mzn-stat: circuitNumber1226PropagationsThatFoundConflict=878
%%%mzn-stat: circuitNumber1226TotalFixedEdgesAtConflict=32700
%%%mzn-stat: circuitNumber1226NumberOfConflicts=878
%%%mzn-stat: circuitNumber1226PropagationsThatPruned=1674
%%%mzn-stat: circuitNumber1226PropagationsTotal=6020
%%%mzn-stat: AverageConflictSize=7.514527845036319
%%%mzn-stat: NumUnitNogoodsLearned=0
%%%mzn-stat: AverageLearnedNogoodLength=14.978208232445521
%%%mzn-stat: AverageBacktrackAmount=0
%%%mzn-stat: AverageLbd=8.247881355932204
%%%mzn-stat: 2AutonomousSearchNumBackupCalled=847
%%%mzn-stat: 2AutonomousSearchNumPredicatesRemoved=0
%%%mzn-stat: 2AutonomousSearchNumCalls=852
%%%mzn-stat: 2AutonomousSearchNumPredicatesAdded=12455
%%%mzn-stat: 2AutonomousSearchAverageSizeOfHeap=16.164319248826292
%%%mzn-stat: 2AutonomousSearchNumAssignedPredicatesEncountered=13772
%%%mzn-stat-end
maxleg = 523;
succ = array1d(1..50,[3, 24, 15, 27, 25, 1, 28, 11, 39, 12, 19, 32, 17, 33, 41, 49, 20, 48, 30, 38, 22, 50, 46, 35, 2, 4, 29, 34, 21, 26, 10, 8, 18, 16, 36, 31, 14, 47, 37, 42, 7, 23, 9, 43, 40, 6, 45, 5, 44, 13]);
% time elapsed: 4.64 s
----------
%%%mzn-stat: initTime=0.004361406
%%%mzn-stat: objective=508
%%%mzn-stat: nodes=5157
%%%mzn-stat: restarts=0
%%%mzn-stat: peakDepth=190
%%%mzn-stat: solveTime=0.517794882
%%%mzn-stat: variables=492
%%%mzn-stat: propagators=1534
%%%mzn-stat: failures=3320
%%%mzn-stat: propagations=1628311
%%%mzn-stat: nogoods=3320
%%%mzn-stat: numAtomicConstraintsPropagated=0
%%%mzn-stat: circuitNumber1226PropagationsThatFoundConflict=886
%%%mzn-stat: circuitNumber1226TotalFixedEdgesAtConflict=33007
%%%mzn-stat: circuitNumber1226NumberOfConflicts=886
%%%mzn-stat: circuitNumber1226PropagationsThatPruned=1685
%%%mzn-stat: circuitNumber1226PropagationsTotal=6088
%%%mzn-stat: AverageConflictSize=7.562349397590362
%%%mzn-stat: NumUnitNogoodsLearned=0
%%%mzn-stat: AverageLearnedNogoodLength=14.998795180722892
%%%mzn-stat: AverageBacktrackAmount=0
%%%mzn-stat: AverageLbd=8.249096385542169
%%%mzn-stat: 2AutonomousSearchNumBackupCalled=1013
%%%mzn-stat: 2AutonomousSearchNumPredicatesRemoved=0
%%%mzn-stat: 2AutonomousSearchNumCalls=1019
%%%mzn-stat: 2AutonomousSearchNumPredicatesAdded=13553
%%%mzn-stat: 2AutonomousSearchAverageSizeOfHeap=16.515210991167812
%%%mzn-stat: 2AutonomousSearchNumAssignedPredicatesEncountered=16829
%%%mzn-stat-end
maxleg = 508;
succ = array1d(1..50,[3, 24, 15, 27, 25, 46, 28, 11, 39, 12, 19, 6, 17, 33, 41, 49, 20, 48, 30, 38, 22, 50, 42, 35, 2, 4, 29, 34, 21, 26, 10, 8, 18, 16, 36, 31, 14, 47, 37, 1, 7, 32, 9, 43, 40, 23, 45, 5, 44, 13]);
% time elapsed: 4.65 s
----------
%%%mzn-stat: initTime=0.004361406
%%%mzn-stat: objective=479
%%%mzn-stat: nodes=56452
%%%mzn-stat: restarts=0
%%%mzn-stat: peakDepth=190
%%%mzn-stat: solveTime=13.603389917
%%%mzn-stat: variables=492
%%%mzn-stat: propagators=1534
%%%mzn-stat: failures=53162
%%%mzn-stat: propagations=21707014
%%%mzn-stat: nogoods=53162
%%%mzn-stat: numAtomicConstraintsPropagated=0
%%%mzn-stat: circuitNumber1226PropagationsThatFoundConflict=45438
%%%mzn-stat: circuitNumber1226TotalFixedEdgesAtConflict=2091181
%%%mzn-stat: circuitNumber1226NumberOfConflicts=45438
%%%mzn-stat: circuitNumber1226PropagationsThatPruned=24668
%%%mzn-stat: circuitNumber1226PropagationsTotal=129884
%%%mzn-stat: AverageConflictSize=36.213084534065686
%%%mzn-stat: NumUnitNogoodsLearned=0
%%%mzn-stat: AverageLearnedNogoodLength=29.376678830743764
%%%mzn-stat: AverageBacktrackAmount=0
%%%mzn-stat: AverageLbd=10.44181934464467
%%%mzn-stat: 2AutonomousSearchNumBackupCalled=1172
%%%mzn-stat: 2AutonomousSearchNumPredicatesRemoved=0
%%%mzn-stat: 2AutonomousSearchNumCalls=1179
%%%mzn-stat: 2AutonomousSearchNumPredicatesAdded=16819
%%%mzn-stat: 2AutonomousSearchAverageSizeOfHeap=17.159457167090753
%%%mzn-stat: 2AutonomousSearchNumAssignedPredicatesEncountered=20231
%%%mzn-stat-end
maxleg = 479;
succ = array1d(1..50,[6, 24, 28, 26, 25, 12, 41, 32, 39, 16, 8, 37, 17, 33, 4, 49, 20, 48, 11, 38, 22, 50, 1, 35, 2, 27, 29, 34, 21, 19, 10, 42, 18, 7, 36, 31, 14, 47, 3, 30, 15, 46, 9, 43, 40, 23, 45, 5, 44, 13]);
% time elapsed: 17.73 s
----------
==========
% time elapsed: 22.30 s
%%%mzn-stat: initTime=0.004361406
%%%mzn-stat: objective=479
%%%mzn-stat: nodes=90176
%%%mzn-stat: restarts=0
%%%mzn-stat: peakDepth=190
%%%mzn-stat: solveTime=18.170608095
%%%mzn-stat: variables=492
%%%mzn-stat: propagators=1534
%%%mzn-stat: failures=71185
%%%mzn-stat: propagations=30301608
%%%mzn-stat: nogoods=71185
%%%mzn-stat: numAtomicConstraintsPropagated=0
%%%mzn-stat: circuitNumber1226PropagationsThatFoundConflict=60416
%%%mzn-stat: circuitNumber1226TotalFixedEdgesAtConflict=2725203
%%%mzn-stat: circuitNumber1226NumberOfConflicts=60416
%%%mzn-stat: circuitNumber1226PropagationsThatPruned=32462
%%%mzn-stat: circuitNumber1226PropagationsTotal=185866
%%%mzn-stat: AverageConflictSize=34.9554260026691
%%%mzn-stat: NumUnitNogoodsLearned=1
%%%mzn-stat: AverageLearnedNogoodLength=28.80693966425511
%%%mzn-stat: AverageBacktrackAmount=0
%%%mzn-stat: AverageLbd=10.029289878485637
%%%mzn-stat: 2AutonomousSearchNumBackupCalled=1172
%%%mzn-stat: 2AutonomousSearchNumPredicatesRemoved=0
%%%mzn-stat: 2AutonomousSearchNumCalls=1179
%%%mzn-stat: 2AutonomousSearchNumPredicatesAdded=20183
%%%mzn-stat: 2AutonomousSearchAverageSizeOfHeap=17.159457167090753
%%%mzn-stat: 2AutonomousSearchNumAssignedPredicatesEncountered=20231
%%%mzn-stat-end
